db/data/14546158715951284085573288961679913044.z3.out
-------------------
2500.121413633
